1191.98 0
0 82 20 83 65 130 119 115 114 71 0
0 91 21 25 27 90 89 87 86 85 84 88 15 14 11 12 13 16 92 105 103 55 54 61 60 24 22 23 75 34 63 79 67 80 33 0
0 59 58 57 56 104 99 95 35 50 49 48 32 134 76 77 64 78 133 70 69 68 0
0 46 118 19 131 117 66 72 31 30 0
0 73 74 47 1 62 52 51 53 102 101 36 37 44 43 38 96 97 100 98 39 2 10 9 8 7 6 5 4 42 41 3 40 45 94 93 29 28 26 0
0 17 132 112 126 113 129 128 127 124 123 110 0
0 81 125 111 122 121 120 109 108 107 106 116 18 0